
Value of objective function: 1.67924528

Actual values of the variables:
score                     1.67925
x_0_t_1                       0.5
x_1_t_1                       0.5
x_0_t_0                         0
x_0_t_2                       0.5
x_0_t_3                       0.5
x_0_t_4                  0.801887
x_0_t_5                  0.801887
x_0_t_6                  0.801887
x_0_t_7                  0.801887
x_0_t_8                  0.801887
x_0_t_9                  0.801887
x_0_t_10                 0.801887
x_0_t_11                 0.801887
x_0_t_12                 0.801887
x_0_t_13                 0.801887
x_1_t_0                         0
x_1_t_2                  0.820755
x_1_t_3                  0.820755
x_1_t_4                  0.820755
x_1_t_5                  0.820755
x_1_t_6                  0.820755
x_1_t_7                  0.820755
x_1_t_8                  0.820755
x_1_t_9                  0.820755
x_1_t_10                 0.820755
x_1_t_11                 0.820755
x_1_t_12                 0.820755
x_1_t_13                 0.820755
x_10_t_0                        0
x_10_t_1                        0
x_10_t_2                        0
x_10_t_3                        0
x_10_t_4                        0
x_10_t_5                        0
x_10_t_6                        0
x_10_t_7                        0
x_10_t_8                        0
x_10_t_9                        0
x_10_t_10                0.235849
x_10_t_11                0.764151
x_10_t_12                0.764151
x_10_t_13                0.764151
x_11_t_0                        0
x_11_t_1                        0
x_11_t_2                        0
x_11_t_3                        0
x_11_t_4                        0
x_11_t_5                        0
x_11_t_6                        0
x_11_t_7                        0
x_11_t_8                        0
x_11_t_9                        0
x_11_t_10                       0
x_11_t_11                0.235849
x_11_t_12                0.235849
x_11_t_13                       1
x_12_t_0                        0
x_12_t_1                        0
x_12_t_2                        0
x_12_t_3                        0
x_12_t_4                        0
x_12_t_5                        0
x_12_t_6                        0
x_12_t_7                        0
x_12_t_8                        0
x_12_t_9                        0
x_12_t_10                       0
x_12_t_11                       0
x_12_t_12                       0
x_12_t_13                       0
x_2_t_0                         0
x_2_t_1                         0
x_2_t_2                  0.179245
x_2_t_3                  0.660377
x_2_t_4                  0.660377
x_2_t_5                  0.660377
x_2_t_6                  0.660377
x_2_t_7                  0.660377
x_2_t_8                  0.660377
x_2_t_9                  0.660377
x_2_t_10                 0.660377
x_2_t_11                 0.660377
x_2_t_12                 0.660377
x_2_t_13                 0.660377
x_3_t_0                         0
x_3_t_1                         0
x_3_t_2                         0
x_3_t_3                  0.339623
x_3_t_4                  0.339623
x_3_t_5                  0.339623
x_3_t_6                         1
x_3_t_7                         1
x_3_t_8                         1
x_3_t_9                         1
x_3_t_10                        1
x_3_t_11                        1
x_3_t_12                        1
x_3_t_13                        1
x_4_t_0                         0
x_4_t_1                         0
x_4_t_2                         0
x_4_t_3                  0.198113
x_4_t_4                  0.198113
x_4_t_5                  0.424528
x_4_t_6                  0.424528
x_4_t_7                  0.424528
x_4_t_8                  0.424528
x_4_t_9                  0.424528
x_4_t_10                 0.424528
x_4_t_11                 0.424528
x_4_t_12                 0.424528
x_4_t_13                 0.424528
x_5_t_0                         0
x_5_t_1                         0
x_5_t_2                         0
x_5_t_3                         0
x_5_t_4                         0
x_5_t_5                  0.575472
x_5_t_6                  0.575472
x_5_t_7                  0.575472
x_5_t_8                  0.849057
x_5_t_9                  0.849057
x_5_t_10                 0.849057
x_5_t_11                 0.849057
x_5_t_12                 0.849057
x_5_t_13                        1
x_6_t_0                         0
x_6_t_1                         0
x_6_t_2                         0
x_6_t_3                         0
x_6_t_4                         0
x_6_t_5                         0
x_6_t_6                         0
x_6_t_7                  0.679245
x_6_t_8                  0.679245
x_6_t_9                  0.679245
x_6_t_10                 0.679245
x_6_t_11                 0.679245
x_6_t_12                 0.679245
x_6_t_13                 0.679245
x_7_t_0                         0
x_7_t_1                         0
x_7_t_2                         0
x_7_t_3                         0
x_7_t_4                         0
x_7_t_5                         0
x_7_t_6                         0
x_7_t_7                  0.320755
x_7_t_8                  0.320755
x_7_t_9                  0.320755
x_7_t_10                 0.764151
x_7_t_11                 0.764151
x_7_t_12                 0.764151
x_7_t_13                        1
x_8_t_0                         0
x_8_t_1                         0
x_8_t_2                         0
x_8_t_3                         0
x_8_t_4                         0
x_8_t_5                         0
x_8_t_6                         0
x_8_t_7                         0
x_8_t_8                  0.150943
x_8_t_9                  0.830189
x_8_t_10                 0.830189
x_8_t_11                 0.830189
x_8_t_12                 0.830189
x_8_t_13                        1
x_9_t_0                         0
x_9_t_1                         0
x_9_t_2                         0
x_9_t_3                         0
x_9_t_4                         0
x_9_t_5                         0
x_9_t_6                         0
x_9_t_7                         0
x_9_t_8                         0
x_9_t_9                  0.169811
x_9_t_10                 0.169811
x_9_t_11                 0.320755
x_9_t_12                        1
x_9_t_13                        1
